10
99
0 1 46 7.54
0 2 24 7.43
0 3 42 6.02
0 4 45 7.17
0 5 36 7.73
0 6 22 6.16
0 7 36 7.95
0 8 35 10.15
0 9 23 6.69
1 2 41 10.48
1 3 22 10.06
1 4 42 10.46
1 5 42 2.97
1 6 22 9.45
1 7 51 3.74
1 8 36 7.68
1 9 54 5.2
2 3 49 6.09
2 4 35 7.52
2 5 47 8.96
2 6 54 8.12
2 7 25 7.58
2 8 31 6.46
2 9 22 8.03
3 4 37 10.18
3 5 34 9.87
3 6 42 10.2
3 7 31 5.64
3 8 34 9.0
3 9 20 10.65
4 5 48 6.12
4 6 27 10.96
4 7 49 7.43
4 8 43 10.43
4 9 30 9.14
5 6 46 8.61
5 7 43 5.35
5 8 37 7.01
5 9 45 3.47
6 7 41 8.37
6 8 35 5.95
6 9 41 6.98
7 8 27 9.08
7 9 39 4.97
8 9 27 10.53